33 33
5 4
7 2
2 1
3 5
9 5
10 3
6 6
1 2
4 7
4 5
2 3
5 1
10 8
3 4
5 4
7 6
8 3
1 5
4 2
4 2
6 1
5 7
10 8
4 6
3 5
10 8
8 2
7 7
8 3
2 2
6 2
1 1
2 4
15 14 85
20 8 67
11 18 61
10 17 76
11 16 75
17 8 62
12 15 62
12 17 90
18 20 55
10 19 73
17 16 56
10 8 73
19 13 92
15 12 66
16 11 55
11 17 82
19 8 54
13 9 56
13 17 100
19 19 88
17 9 87
11 16 57
10 10 100
11 19 82
15 14 57
11 14 75
20 14 83
19 18 67
14 12 77
10 8 90
13 10 73
13 10 89
19 9 67
